50
129650

6312 9312.0
6891 8891.0
664 2664.0
4243 6243.0
8377 10377.0
7962 10962.0
6635 8635.0
4970 6970.0
7809 9809.0
5867 7867.0
9559 11559.0
3579 5579.0
8269 10269.0
2282 4282.0
4618 6618.0
2290 4290.0
1554 4554.0
4105 6105.0
8726 10726.0
9862 11862.0
2408 4408.0
5082 8082.0
1619 3619.0
1209 3209.0
5410 7410.0
7736 9736.0
9172 11172.0
1650 4650.0
5797 7797.0
7114 9114.0
5181 7181.0
3351 5351.0
9053 11053.0
7816 9816.0
7254 10254.0
8542 10542.0
4268 6268.0
1021 3021.0
8990 10990.0
231 2231.0
1529 3529.0
6535 8535.0
19 2019.0
8087 10087.0
5459 7459.0
3997 5997.0
5329 7329.0
1032 4032.0
3131 5131.0
9299 11299.0
